\ LP format - for model browsing. Use MPS format to capture full model detail.
Maximize
  x0,1_33 + x0,1_55 + x0,1_56 + x0,1_69 + x0,1_79 + x0,1_89 + x0,1_91
   + x0,2_33 + x0,2_55 + x0,2_56 + x0,2_69 + x0,2_79 + x0,2_89 + x0,2_91
   + x0,3_33 + x0,3_55 + x0,3_56 + x0,3_69 + x0,3_79 + x0,3_89 + x0,3_91
   + x0,4_33 + x0,4_55 + x0,4_56 + x0,4_69 + x0,4_79 + x0,4_89 + x0,4_91
   + x0,5_33 + x0,5_55 + x0,5_56 + x0,5_69 + x0,5_79 + x0,5_89 + x0,5_91
   + x1,2_33 + x1,2_55 + x1,2_56 + x1,2_69 + x1,2_79 + x1,2_89 + x1,2_91
   + x1,3_33 + x1,3_55 + x1,3_56 + x1,3_69 + x1,3_79 + x1,3_89 + x1,3_91
   + x1,4_33 + x1,4_55 + x1,4_56 + x1,4_69 + x1,4_79 + x1,4_89 + x1,4_91
   + x1,5_33 + x1,5_55 + x1,5_56 + x1,5_69 + x1,5_79 + x1,5_89 + x1,5_91
   + x2,3_33 + x2,3_55 + x2,3_56 + x2,3_69 + x2,3_79 + x2,3_89 + x2,3_91
   + x2,4_33 + x2,4_55 + x2,4_56 + x2,4_69 + x2,4_79 + x2,4_89 + x2,4_91
   + x2,5_33 + x2,5_55 + x2,5_56 + x2,5_69 + x2,5_79 + x2,5_89 + x2,5_91
   + x3,4_33 + x3,4_55 + x3,4_56 + x3,4_69 + x3,4_79 + x3,4_89 + x3,4_91
   + x3,5_33 + x3,5_55 + x3,5_56 + x3,5_69 + x3,5_79 + x3,5_89 + x3,5_91
   + x4,5_33 + x4,5_55 + x4,5_56 + x4,5_69 + x4,5_79 + x4,5_89 + x4,5_91
Subject To
 R0: x0,1_33 + x0,2_33 + x0,3_33 + x0,4_33 + x0,5_33 + x1,2_33 + x1,3_33
   + x1,4_33 + x1,5_33 + x2,3_33 + x2,4_33 + x2,5_33 + x3,4_33 + x3,5_33
   + x4,5_33 <= 1
 R1: x0,1_55 + x0,2_55 + x0,3_55 + x0,4_55 + x0,5_55 + x1,2_55 + x1,3_55
   + x1,4_55 + x1,5_55 + x2,3_55 + x2,4_55 + x2,5_55 + x3,4_55 + x3,5_55
   + x4,5_55 <= 1
 R2: x0,1_56 + x0,2_56 + x0,3_56 + x0,4_56 + x0,5_56 + x1,2_56 + x1,3_56
   + x1,4_56 + x1,5_56 + x2,3_56 + x2,4_56 + x2,5_56 + x3,4_56 + x3,5_56
   + x4,5_56 <= 1
 R3: x0,1_69 + x0,2_69 + x0,3_69 + x0,4_69 + x0,5_69 + x1,2_69 + x1,3_69
   + x1,4_69 + x1,5_69 + x2,3_69 + x2,4_69 + x2,5_69 + x3,4_69 + x3,5_69
   + x4,5_69 <= 1
 R4: x0,1_79 + x0,2_79 + x0,3_79 + x0,4_79 + x0,5_79 + x1,2_79 + x1,3_79
   + x1,4_79 + x1,5_79 + x2,3_79 + x2,4_79 + x2,5_79 + x3,4_79 + x3,5_79
   + x4,5_79 <= 1
 R5: x0,1_89 + x0,2_89 + x0,3_89 + x0,4_89 + x0,5_89 + x1,2_89 + x1,3_89
   + x1,4_89 + x1,5_89 + x2,3_89 + x2,4_89 + x2,5_89 + x3,4_89 + x3,5_89
   + x4,5_89 <= 1
 R6: x0,1_91 + x0,2_91 + x0,3_91 + x0,4_91 + x0,5_91 + x1,2_91 + x1,3_91
   + x1,4_91 + x1,5_91 + x2,3_91 + x2,4_91 + x2,5_91 + x3,4_91 + x3,5_91
   + x4,5_91 <= 1
 R7: x0,1_33 + x0,1_55 + x0,1_56 + x0,1_69 + x0,1_79 + x0,1_89 + x0,1_91
   <= 1
 R8: x0,2_33 + x0,2_55 + x0,2_56 + x0,2_69 + x0,2_79 + x0,2_89 + x0,2_91
   <= 1
 R9: x0,3_33 + x0,3_55 + x0,3_56 + x0,3_69 + x0,3_79 + x0,3_89 + x0,3_91
   <= 1
 R10: x0,4_33 + x0,4_55 + x0,4_56 + x0,4_69 + x0,4_79 + x0,4_89 + x0,4_91
   <= 1
 R11: x0,5_33 + x0,5_55 + x0,5_56 + x0,5_69 + x0,5_79 + x0,5_89 + x0,5_91
   <= 1
 R12: x1,2_33 + x1,2_55 + x1,2_56 + x1,2_69 + x1,2_79 + x1,2_89 + x1,2_91
   <= 1
 R13: x1,3_33 + x1,3_55 + x1,3_56 + x1,3_69 + x1,3_79 + x1,3_89 + x1,3_91
   <= 1
 R14: x1,4_33 + x1,4_55 + x1,4_56 + x1,4_69 + x1,4_79 + x1,4_89 + x1,4_91
   <= 1
 R15: x1,5_33 + x1,5_55 + x1,5_56 + x1,5_69 + x1,5_79 + x1,5_89 + x1,5_91
   <= 1
 R16: x2,3_33 + x2,3_55 + x2,3_56 + x2,3_69 + x2,3_79 + x2,3_89 + x2,3_91
   <= 1
 R17: x2,4_33 + x2,4_55 + x2,4_56 + x2,4_69 + x2,4_79 + x2,4_89 + x2,4_91
   <= 1
 R18: x2,5_33 + x2,5_55 + x2,5_56 + x2,5_69 + x2,5_79 + x2,5_89 + x2,5_91
   <= 1
 R19: x3,4_33 + x3,4_55 + x3,4_56 + x3,4_69 + x3,4_79 + x3,4_89 + x3,4_91
   <= 1
 R20: x3,5_33 + x3,5_55 + x3,5_56 + x3,5_69 + x3,5_79 + x3,5_89 + x3,5_91
   <= 1
 R21: x4,5_33 + x4,5_55 + x4,5_56 + x4,5_69 + x4,5_79 + x4,5_89 + x4,5_91
   <= 1
 R22: p0 - p1 <= -1
 R23: - 33 x0,1_33 - p0 + p1 >= 0
 R24: 472 x0,1_33 - p0 + p1 <= 505
 R25: - 55 x0,1_55 - p0 + p1 >= 0
 R26: 472 x0,1_55 - p0 + p1 <= 527
 R27: - 56 x0,1_56 - p0 + p1 >= 0
 R28: 472 x0,1_56 - p0 + p1 <= 528
 R29: - 69 x0,1_69 - p0 + p1 >= 0
 R30: 472 x0,1_69 - p0 + p1 <= 541
 R31: - 79 x0,1_79 - p0 + p1 >= 0
 R32: 472 x0,1_79 - p0 + p1 <= 551
 R33: - 89 x0,1_89 - p0 + p1 >= 0
 R34: 472 x0,1_89 - p0 + p1 <= 561
 R35: - 91 x0,1_91 - p0 + p1 >= 0
 R36: 472 x0,1_91 - p0 + p1 <= 563
 R37: p0 - p2 <= -1
 R38: - 33 x0,2_33 - p0 + p2 >= 0
 R39: 472 x0,2_33 - p0 + p2 <= 505
 R40: - 55 x0,2_55 - p0 + p2 >= 0
 R41: 472 x0,2_55 - p0 + p2 <= 527
 R42: - 56 x0,2_56 - p0 + p2 >= 0
 R43: 472 x0,2_56 - p0 + p2 <= 528
 R44: - 69 x0,2_69 - p0 + p2 >= 0
 R45: 472 x0,2_69 - p0 + p2 <= 541
 R46: - 79 x0,2_79 - p0 + p2 >= 0
 R47: 472 x0,2_79 - p0 + p2 <= 551
 R48: - 89 x0,2_89 - p0 + p2 >= 0
 R49: 472 x0,2_89 - p0 + p2 <= 561
 R50: - 91 x0,2_91 - p0 + p2 >= 0
 R51: 472 x0,2_91 - p0 + p2 <= 563
 R52: p0 - p3 <= -1
 R53: - 33 x0,3_33 - p0 + p3 >= 0
 R54: 472 x0,3_33 - p0 + p3 <= 505
 R55: - 55 x0,3_55 - p0 + p3 >= 0
 R56: 472 x0,3_55 - p0 + p3 <= 527
 R57: - 56 x0,3_56 - p0 + p3 >= 0
 R58: 472 x0,3_56 - p0 + p3 <= 528
 R59: - 69 x0,3_69 - p0 + p3 >= 0
 R60: 472 x0,3_69 - p0 + p3 <= 541
 R61: - 79 x0,3_79 - p0 + p3 >= 0
 R62: 472 x0,3_79 - p0 + p3 <= 551
 R63: - 89 x0,3_89 - p0 + p3 >= 0
 R64: 472 x0,3_89 - p0 + p3 <= 561
 R65: - 91 x0,3_91 - p0 + p3 >= 0
 R66: 472 x0,3_91 - p0 + p3 <= 563
 R67: p0 - p4 <= -1
 R68: - 33 x0,4_33 - p0 + p4 >= 0
 R69: 472 x0,4_33 - p0 + p4 <= 505
 R70: - 55 x0,4_55 - p0 + p4 >= 0
 R71: 472 x0,4_55 - p0 + p4 <= 527
 R72: - 56 x0,4_56 - p0 + p4 >= 0
 R73: 472 x0,4_56 - p0 + p4 <= 528
 R74: - 69 x0,4_69 - p0 + p4 >= 0
 R75: 472 x0,4_69 - p0 + p4 <= 541
 R76: - 79 x0,4_79 - p0 + p4 >= 0
 R77: 472 x0,4_79 - p0 + p4 <= 551
 R78: - 89 x0,4_89 - p0 + p4 >= 0
 R79: 472 x0,4_89 - p0 + p4 <= 561
 R80: - 91 x0,4_91 - p0 + p4 >= 0
 R81: 472 x0,4_91 - p0 + p4 <= 563
 R82: p0 - p5 <= -1
 R83: - 33 x0,5_33 - p0 + p5 >= 0
 R84: 472 x0,5_33 - p0 + p5 <= 505
 R85: - 55 x0,5_55 - p0 + p5 >= 0
 R86: 472 x0,5_55 - p0 + p5 <= 527
 R87: - 56 x0,5_56 - p0 + p5 >= 0
 R88: 472 x0,5_56 - p0 + p5 <= 528
 R89: - 69 x0,5_69 - p0 + p5 >= 0
 R90: 472 x0,5_69 - p0 + p5 <= 541
 R91: - 79 x0,5_79 - p0 + p5 >= 0
 R92: 472 x0,5_79 - p0 + p5 <= 551
 R93: - 89 x0,5_89 - p0 + p5 >= 0
 R94: 472 x0,5_89 - p0 + p5 <= 561
 R95: - 91 x0,5_91 - p0 + p5 >= 0
 R96: 472 x0,5_91 - p0 + p5 <= 563
 R97: p1 - p2 <= -1
 R98: - 33 x1,2_33 - p1 + p2 >= 0
 R99: 472 x1,2_33 - p1 + p2 <= 505
 R100: - 55 x1,2_55 - p1 + p2 >= 0
 R101: 472 x1,2_55 - p1 + p2 <= 527
 R102: - 56 x1,2_56 - p1 + p2 >= 0
 R103: 472 x1,2_56 - p1 + p2 <= 528
 R104: - 69 x1,2_69 - p1 + p2 >= 0
 R105: 472 x1,2_69 - p1 + p2 <= 541
 R106: - 79 x1,2_79 - p1 + p2 >= 0
 R107: 472 x1,2_79 - p1 + p2 <= 551
 R108: - 89 x1,2_89 - p1 + p2 >= 0
 R109: 472 x1,2_89 - p1 + p2 <= 561
 R110: - 91 x1,2_91 - p1 + p2 >= 0
 R111: 472 x1,2_91 - p1 + p2 <= 563
 R112: p1 - p3 <= -1
 R113: - 33 x1,3_33 - p1 + p3 >= 0
 R114: 472 x1,3_33 - p1 + p3 <= 505
 R115: - 55 x1,3_55 - p1 + p3 >= 0
 R116: 472 x1,3_55 - p1 + p3 <= 527
 R117: - 56 x1,3_56 - p1 + p3 >= 0
 R118: 472 x1,3_56 - p1 + p3 <= 528
 R119: - 69 x1,3_69 - p1 + p3 >= 0
 R120: 472 x1,3_69 - p1 + p3 <= 541
 R121: - 79 x1,3_79 - p1 + p3 >= 0
 R122: 472 x1,3_79 - p1 + p3 <= 551
 R123: - 89 x1,3_89 - p1 + p3 >= 0
 R124: 472 x1,3_89 - p1 + p3 <= 561
 R125: - 91 x1,3_91 - p1 + p3 >= 0
 R126: 472 x1,3_91 - p1 + p3 <= 563
 R127: p1 - p4 <= -1
 R128: - 33 x1,4_33 - p1 + p4 >= 0
 R129: 472 x1,4_33 - p1 + p4 <= 505
 R130: - 55 x1,4_55 - p1 + p4 >= 0
 R131: 472 x1,4_55 - p1 + p4 <= 527
 R132: - 56 x1,4_56 - p1 + p4 >= 0
 R133: 472 x1,4_56 - p1 + p4 <= 528
 R134: - 69 x1,4_69 - p1 + p4 >= 0
 R135: 472 x1,4_69 - p1 + p4 <= 541
 R136: - 79 x1,4_79 - p1 + p4 >= 0
 R137: 472 x1,4_79 - p1 + p4 <= 551
 R138: - 89 x1,4_89 - p1 + p4 >= 0
 R139: 472 x1,4_89 - p1 + p4 <= 561
 R140: - 91 x1,4_91 - p1 + p4 >= 0
 R141: 472 x1,4_91 - p1 + p4 <= 563
 R142: p1 - p5 <= -1
 R143: - 33 x1,5_33 - p1 + p5 >= 0
 R144: 472 x1,5_33 - p1 + p5 <= 505
 R145: - 55 x1,5_55 - p1 + p5 >= 0
 R146: 472 x1,5_55 - p1 + p5 <= 527
 R147: - 56 x1,5_56 - p1 + p5 >= 0
 R148: 472 x1,5_56 - p1 + p5 <= 528
 R149: - 69 x1,5_69 - p1 + p5 >= 0
 R150: 472 x1,5_69 - p1 + p5 <= 541
 R151: - 79 x1,5_79 - p1 + p5 >= 0
 R152: 472 x1,5_79 - p1 + p5 <= 551
 R153: - 89 x1,5_89 - p1 + p5 >= 0
 R154: 472 x1,5_89 - p1 + p5 <= 561
 R155: - 91 x1,5_91 - p1 + p5 >= 0
 R156: 472 x1,5_91 - p1 + p5 <= 563
 R157: p2 - p3 <= -1
 R158: - 33 x2,3_33 - p2 + p3 >= 0
 R159: 472 x2,3_33 - p2 + p3 <= 505
 R160: - 55 x2,3_55 - p2 + p3 >= 0
 R161: 472 x2,3_55 - p2 + p3 <= 527
 R162: - 56 x2,3_56 - p2 + p3 >= 0
 R163: 472 x2,3_56 - p2 + p3 <= 528
 R164: - 69 x2,3_69 - p2 + p3 >= 0
 R165: 472 x2,3_69 - p2 + p3 <= 541
 R166: - 79 x2,3_79 - p2 + p3 >= 0
 R167: 472 x2,3_79 - p2 + p3 <= 551
 R168: - 89 x2,3_89 - p2 + p3 >= 0
 R169: 472 x2,3_89 - p2 + p3 <= 561
 R170: - 91 x2,3_91 - p2 + p3 >= 0
 R171: 472 x2,3_91 - p2 + p3 <= 563
 R172: p2 - p4 <= -1
 R173: - 33 x2,4_33 - p2 + p4 >= 0
 R174: 472 x2,4_33 - p2 + p4 <= 505
 R175: - 55 x2,4_55 - p2 + p4 >= 0
 R176: 472 x2,4_55 - p2 + p4 <= 527
 R177: - 56 x2,4_56 - p2 + p4 >= 0
 R178: 472 x2,4_56 - p2 + p4 <= 528
 R179: - 69 x2,4_69 - p2 + p4 >= 0
 R180: 472 x2,4_69 - p2 + p4 <= 541
 R181: - 79 x2,4_79 - p2 + p4 >= 0
 R182: 472 x2,4_79 - p2 + p4 <= 551
 R183: - 89 x2,4_89 - p2 + p4 >= 0
 R184: 472 x2,4_89 - p2 + p4 <= 561
 R185: - 91 x2,4_91 - p2 + p4 >= 0
 R186: 472 x2,4_91 - p2 + p4 <= 563
 R187: p2 - p5 <= -1
 R188: - 33 x2,5_33 - p2 + p5 >= 0
 R189: 472 x2,5_33 - p2 + p5 <= 505
 R190: - 55 x2,5_55 - p2 + p5 >= 0
 R191: 472 x2,5_55 - p2 + p5 <= 527
 R192: - 56 x2,5_56 - p2 + p5 >= 0
 R193: 472 x2,5_56 - p2 + p5 <= 528
 R194: - 69 x2,5_69 - p2 + p5 >= 0
 R195: 472 x2,5_69 - p2 + p5 <= 541
 R196: - 79 x2,5_79 - p2 + p5 >= 0
 R197: 472 x2,5_79 - p2 + p5 <= 551
 R198: - 89 x2,5_89 - p2 + p5 >= 0
 R199: 472 x2,5_89 - p2 + p5 <= 561
 R200: - 91 x2,5_91 - p2 + p5 >= 0
 R201: 472 x2,5_91 - p2 + p5 <= 563
 R202: p3 - p4 <= -1
 R203: - 33 x3,4_33 - p3 + p4 >= 0
 R204: 472 x3,4_33 - p3 + p4 <= 505
 R205: - 55 x3,4_55 - p3 + p4 >= 0
 R206: 472 x3,4_55 - p3 + p4 <= 527
 R207: - 56 x3,4_56 - p3 + p4 >= 0
 R208: 472 x3,4_56 - p3 + p4 <= 528
 R209: - 69 x3,4_69 - p3 + p4 >= 0
 R210: 472 x3,4_69 - p3 + p4 <= 541
 R211: - 79 x3,4_79 - p3 + p4 >= 0
 R212: 472 x3,4_79 - p3 + p4 <= 551
 R213: - 89 x3,4_89 - p3 + p4 >= 0
 R214: 472 x3,4_89 - p3 + p4 <= 561
 R215: - 91 x3,4_91 - p3 + p4 >= 0
 R216: 472 x3,4_91 - p3 + p4 <= 563
 R217: p3 - p5 <= -1
 R218: - 33 x3,5_33 - p3 + p5 >= 0
 R219: 472 x3,5_33 - p3 + p5 <= 505
 R220: - 55 x3,5_55 - p3 + p5 >= 0
 R221: 472 x3,5_55 - p3 + p5 <= 527
 R222: - 56 x3,5_56 - p3 + p5 >= 0
 R223: 472 x3,5_56 - p3 + p5 <= 528
 R224: - 69 x3,5_69 - p3 + p5 >= 0
 R225: 472 x3,5_69 - p3 + p5 <= 541
 R226: - 79 x3,5_79 - p3 + p5 >= 0
 R227: 472 x3,5_79 - p3 + p5 <= 551
 R228: - 89 x3,5_89 - p3 + p5 >= 0
 R229: 472 x3,5_89 - p3 + p5 <= 561
 R230: - 91 x3,5_91 - p3 + p5 >= 0
 R231: 472 x3,5_91 - p3 + p5 <= 563
 R232: p4 - p5 <= -1
 R233: - 33 x4,5_33 - p4 + p5 >= 0
 R234: 472 x4,5_33 - p4 + p5 <= 505
 R235: - 55 x4,5_55 - p4 + p5 >= 0
 R236: 472 x4,5_55 - p4 + p5 <= 527
 R237: - 56 x4,5_56 - p4 + p5 >= 0
 R238: 472 x4,5_56 - p4 + p5 <= 528
 R239: - 69 x4,5_69 - p4 + p5 >= 0
 R240: 472 x4,5_69 - p4 + p5 <= 541
 R241: - 79 x4,5_79 - p4 + p5 >= 0
 R242: 472 x4,5_79 - p4 + p5 <= 551
 R243: - 89 x4,5_89 - p4 + p5 >= 0
 R244: 472 x4,5_89 - p4 + p5 <= 561
 R245: - 91 x4,5_91 - p4 + p5 >= 0
 R246: 472 x4,5_91 - p4 + p5 <= 563
Bounds
Binaries
 x0,1_33 x0,1_55 x0,1_56 x0,1_69 x0,1_79 x0,1_89 x0,1_91 x0,2_33 x0,2_55
 x0,2_56 x0,2_69 x0,2_79 x0,2_89 x0,2_91 x0,3_33 x0,3_55 x0,3_56 x0,3_69
 x0,3_79 x0,3_89 x0,3_91 x0,4_33 x0,4_55 x0,4_56 x0,4_69 x0,4_79 x0,4_89
 x0,4_91 x0,5_33 x0,5_55 x0,5_56 x0,5_69 x0,5_79 x0,5_89 x0,5_91 x1,2_33
 x1,2_55 x1,2_56 x1,2_69 x1,2_79 x1,2_89 x1,2_91 x1,3_33 x1,3_55 x1,3_56
 x1,3_69 x1,3_79 x1,3_89 x1,3_91 x1,4_33 x1,4_55 x1,4_56 x1,4_69 x1,4_79
 x1,4_89 x1,4_91 x1,5_33 x1,5_55 x1,5_56 x1,5_69 x1,5_79 x1,5_89 x1,5_91
 x2,3_33 x2,3_55 x2,3_56 x2,3_69 x2,3_79 x2,3_89 x2,3_91 x2,4_33 x2,4_55
 x2,4_56 x2,4_69 x2,4_79 x2,4_89 x2,4_91 x2,5_33 x2,5_55 x2,5_56 x2,5_69
 x2,5_79 x2,5_89 x2,5_91 x3,4_33 x3,4_55 x3,4_56 x3,4_69 x3,4_79 x3,4_89
 x3,4_91 x3,5_33 x3,5_55 x3,5_56 x3,5_69 x3,5_79 x3,5_89 x3,5_91 x4,5_33
 x4,5_55 x4,5_56 x4,5_69 x4,5_79 x4,5_89 x4,5_91
Generals
 p0 p1 p2 p3 p4 p5
End
